1
1000
85
328 1
258 1
263 2
392 2
267 1
398 1
272 1
408 1
274 2
275 1
405 1
409 1
280 1
380 2
411 1
412 1
285 1
287 1
290 1
422 1
293 1
294 1
403 1
169 1
170 1
172 1
413 1
177 1
178 1
435 1
436 1
309 1
312 1
186 1
400 1
188 1
189 1
190 1
482 1
196 1
326 1
353 1
200 1
329 1
458 2
375 1
204 1
333 1
334 1
209 1
338 1
211 1
340 1
342 1
343 3
475 2
348 1
314 1
494 1
442 1
225 1
226 1
227 1
228 1
229 2
230 1
360 1
233 1
431 1
235 2
236 1
460 1
366 1
445 2
424 2
370 2
243 1
454 2
297 2
248 1
485 1
378 1
379 1
252 1
253 1
